data/solutions/recovery/wellformed/moderate/binding/wellformed_moderate_instance64/37.sol
Elapsed time: 0.02
Upper bound: 4939.0
Planning weighted value: 131711.0
C[0]=4939.0
C[1]=4927.0
C[2]=4916.0
C[3]=4662.0
C[4]=0.0
y[0]=3
y[1]=3
y[2]=2
y[3]=2
y[4]=1
y[5]=1
y[6]=0
y[7]=2
y[8]=1
y[9]=0
y[10]=1
y[11]=3
y[12]=1
y[13]=1
y[14]=2
y[15]=3
y[16]=2
y[17]=2
y[18]=0
y[19]=0
y[20]=0
y[21]=3
y[22]=2
y[23]=0
y[24]=2
y[25]=0
y[26]=3
y[27]=1
y[28]=1
y[29]=3
y[30]=3
y[31]=3
y[32]=2
y[33]=1
y[34]=1
y[35]=0
y[36]=0
y[37]=2
y[38]=0
y[39]=3
y[40]=1
