data/solutions/recovery/wellformed/moderate/binding/wellformed_moderate_instance64/37.log

Log started (V12.6.3.0) Fri Apr 20 17:49:36 2018

New value for default parallel thread count: 1

Problem '/tmp/tmp3L7Gqf.pyomo.lp' read.
Read time = 0.00 sec. (0.09 ticks)

Problem name         : /tmp/tmp3L7Gqf.pyomo.lp
Objective sense      : Minimize
Variables            :     212  [Nneg: 1,  Binary: 205,  General Integer: 6]
Objective nonzeros   :       1
Linear constraints   :      94  [Less: 46,  Equal: 48]
  Nonzeros           :    5859
  RHS nonzeros       :      42

Variables            : Min LB: 0.000000         Max UB: 1.000000       
Objective nonzeros   : Min   : 1.000000         Max   : 1.000000       
Linear constraints   :
  Nonzeros           : Min   : 1.000000         Max   : 1963.000       
  RHS nonzeros       : Min   : 1.000000         Max   : 1.000000       
Tried aggregator 2 times.
MIP Presolve eliminated 78 rows and 175 columns.
Aggregator did 4 substitutions.
Reduced MIP has 12 rows, 33 columns, and 68 nonzeros.
Reduced MIP has 32 binaries, 1 generals, 0 SOSs, and 0 indicators.
Presolve time = 0.00 sec. (0.49 ticks)
Found incumbent of value 10287.000000 after 0.00 sec. (0.65 ticks)
Probing time = 0.00 sec. (0.02 ticks)
Cover probing fixed 0 vars, tightened 1 bounds.
Tried aggregator 1 time.
Reduced MIP has 12 rows, 33 columns, and 68 nonzeros.
Reduced MIP has 32 binaries, 1 generals, 0 SOSs, and 0 indicators.
Presolve time = 0.00 sec. (0.04 ticks)
Probing time = 0.00 sec. (0.02 ticks)
Clique table members: 8.
MIP emphasis: balance optimality and feasibility.
MIP search method: dynamic search.
Parallel mode: none, using 1 thread.
Root relaxation solution time = 0.00 sec. (0.03 ticks)

        Nodes                                         Cuts/
   Node  Left     Objective  IInf  Best Integer    Best Bound    ItCnt     Gap

*     0+    0                        10287.0000     4475.0000            56.50%
      0     0     4861.0000     6    10287.0000     4861.0000        9   52.75%
*     0+    0                         5644.0000     4861.0000            13.87%
      0     0     4861.0000    10     5644.0000       Cuts: 7       18   13.87%
*     0+    0                         5258.0000     4861.0000             7.55%
      0     0     4861.0000    10     5258.0000      Fract: 1       20    7.55%
*     0+    0                         5027.0000     4861.0000             3.30%
*     0+    0                         5007.0000     4861.0000             2.92%
      0     2     4861.0000     6     5007.0000     4861.0000       23    2.92%
Elapsed time = 0.00 sec. (1.89 ticks, tree = 0.01 MB, solutions = 5)
*     4     2      integral     0     4970.0000     4861.0000       40    2.19%
*    10     0      integral     0     4939.0000     4927.0000       51    0.24%

Gomory fractional cuts applied:  1

Root node processing (before b&c):
  Real time             =    0.00 sec. (1.90 ticks)
Sequential b&c:
  Real time             =    0.00 sec. (0.11 ticks)
                          ------------
Total (root+branch&cut) =    0.01 sec. (2.01 ticks)

Solution pool: 7 solutions saved.

MIP - Integer optimal solution:  Objective =  4.9390000000e+03
Solution time =    0.01 sec.  Iterations = 51  Nodes = 11
Deterministic time = 2.01 ticks  (392.96 ticks/sec)


Incumbent solution written to file '/tmp/tmpRzBTJn.cplex.sol'.

Log started (V12.6.3.0) Fri Apr 20 17:52:40 2018

New value for default parallel thread count: 1

Problem '/tmp/tmpyg2riv.pyomo.lp' read.
Read time = 0.00 sec. (0.09 ticks)

Problem name         : /tmp/tmpyg2riv.pyomo.lp
Objective sense      : Minimize
Variables            :     212  [Nneg: 1,  Binary: 205,  General Integer: 6]
Objective nonzeros   :       1
Linear constraints   :      94  [Less: 46,  Equal: 48]
  Nonzeros           :    5859
  RHS nonzeros       :      42

Variables            : Min LB: 0.000000         Max UB: 1.000000       
Objective nonzeros   : Min   : 1.000000         Max   : 1.000000       
Linear constraints   :
  Nonzeros           : Min   : 1.000000         Max   : 1963.000       
  RHS nonzeros       : Min   : 1.000000         Max   : 1.000000       
Tried aggregator 2 times.
MIP Presolve eliminated 78 rows and 175 columns.
Aggregator did 4 substitutions.
Reduced MIP has 12 rows, 33 columns, and 68 nonzeros.
Reduced MIP has 32 binaries, 1 generals, 0 SOSs, and 0 indicators.
Presolve time = 0.00 sec. (0.49 ticks)
Found incumbent of value 10287.000000 after 0.00 sec. (0.65 ticks)
Probing time = 0.00 sec. (0.02 ticks)
Cover probing fixed 0 vars, tightened 1 bounds.
Tried aggregator 1 time.
Reduced MIP has 12 rows, 33 columns, and 68 nonzeros.
Reduced MIP has 32 binaries, 1 generals, 0 SOSs, and 0 indicators.
Presolve time = 0.00 sec. (0.04 ticks)
Probing time = 0.00 sec. (0.02 ticks)
Clique table members: 8.
MIP emphasis: balance optimality and feasibility.
MIP search method: dynamic search.
Parallel mode: none, using 1 thread.
Root relaxation solution time = 0.00 sec. (0.03 ticks)

        Nodes                                         Cuts/
   Node  Left     Objective  IInf  Best Integer    Best Bound    ItCnt     Gap

*     0+    0                        10287.0000     4475.0000            56.50%
      0     0     4861.0000     6    10287.0000     4861.0000        9   52.75%
*     0+    0                         5644.0000     4861.0000            13.87%
      0     0     4861.0000    10     5644.0000       Cuts: 7       18   13.87%
*     0+    0                         5258.0000     4861.0000             7.55%
      0     0     4861.0000    10     5258.0000      Fract: 1       20    7.55%
*     0+    0                         5027.0000     4861.0000             3.30%
*     0+    0                         5007.0000     4861.0000             2.92%
      0     2     4861.0000     6     5007.0000     4861.0000       23    2.92%
Elapsed time = 0.01 sec. (1.89 ticks, tree = 0.01 MB, solutions = 5)
*     4     2      integral     0     4970.0000     4861.0000       40    2.19%
*    10     0      integral     0     4939.0000     4927.0000       51    0.24%

Gomory fractional cuts applied:  1

Root node processing (before b&c):
  Real time             =    0.01 sec. (1.90 ticks)
Sequential b&c:
  Real time             =    0.00 sec. (0.11 ticks)
                          ------------
Total (root+branch&cut) =    0.01 sec. (2.01 ticks)

Solution pool: 7 solutions saved.

MIP - Integer optimal solution:  Objective =  4.9390000000e+03
Solution time =    0.01 sec.  Iterations = 51  Nodes = 11
Deterministic time = 2.01 ticks  (362.91 ticks/sec)


Incumbent solution written to file '/tmp/tmpYOQUHJ.cplex.sol'.
